NAME: tsp20-39
TYPE: TSP
DIMENSION: 20
EDGE_WEIGHT_TYPE: EUC_2D
NODE_COORD_SECTION
0 31 46
1 35 47
2 18 93
3 77 18
4 91 19
5 10 36
6 24 75
7 9 89
8 50 75
9 64 21
10 74 45
11 12 28
12 36 93
13 5 76
14 75 4
15 27 34
16 17 99
17 15 40
18 47 55
19 92 9
EOF